\ENCODING=ISO-8859-1
\Problem name: ilog.cplex

Minimize
 obj: 1.84 x1 + 2.19 x3
Subject To
 c1: 510 x1 + 370 x3 - Rgc1  = 2000
 c1: 34 x1 + 35 x3 - Rgc1  = 350
Bounds
 0 <= x1 <= 10
 0 <= x3 <= 10
 0 <= Rgc1 <= 7999
 0 <= Rgc1 <= 25
End
